50

100 22 176
99 22 255
97 17 180
97 11 283
96 22 193
96 27 326
95 6 171
92 2 267
92 10 283
90 25 301
90 10 254
88 26 155
87 22 305
87 20 333
85 19 212
84 5 325
83 6 225
82 11 174
81 10 257
79 19 206
74 6 354
68 2 353
68 15 158
63 3 202
59 7 357
58 12 288
56 6 345
55 2 233
55 17 245
51 1 328
50 3 323
49 1 360
49 14 313
49 5 177
47 10 187
44 9 231
44 12 306
42 12 179
39 3 154
37 5 317
37 9 251
34 1 190
34 4 199
34 6 359
33 5 294
33 2 337
31 1 333
30 4 228
30 9 332
30 9 322
